p edge 20 101 8
v 1 5
v 2 1 11
v 3 3 7 12
v 4 6 9 14 16
v 3 15 19 20
v 2 8 17
v 2 13 18
v 3 2 4 10
e 1 2
e 1 4
e 1 5
e 1 10
e 1 11
e 1 13
e 1 15
e 1 17
e 1 19
e 2 5
e 2 7
e 2 8
e 2 11
e 2 16
e 2 18
e 2 19
e 3 4
e 3 6
e 3 7
e 3 9
e 3 10
e 3 11
e 3 12
e 3 13
e 3 14
e 3 18
e 3 20
e 4 5
e 4 6
e 4 7
e 4 9
e 4 10
e 4 11
e 4 12
e 4 14
e 4 15
e 4 18
e 4 19
e 4 20
e 5 6
e 5 9
e 5 10
e 5 13
e 5 15
e 5 18
e 5 19
e 6 8
e 6 9
e 6 11
e 6 16
e 6 18
e 6 19
e 7 9
e 7 11
e 7 13
e 7 15
e 7 18
e 7 20
e 8 9
e 8 10
e 8 12
e 8 13
e 8 16
e 8 19
e 9 11
e 9 16
e 9 17
e 9 20
e 10 11
e 10 12
e 10 13
e 10 18
e 10 19
e 11 12
e 11 14
e 11 15
e 11 16
e 11 17
e 11 19
e 12 15
e 12 16
e 13 15
e 13 18
e 13 20
e 14 15
e 14 16
e 14 18
e 14 19
e 14 20
e 15 16
e 15 18
e 15 19
e 15 20
e 16 17
e 16 18
e 16 19
e 16 20
e 17 19
e 17 20
e 18 19
e 18 20
